100
100
99
97
97
96
96
94
93
93
92
92
91
90
90
90
88
87
87
86
86
86
85
85
85
85
84
84
83
83
82
82
81
81
81
79
79
78
77
76
76
76
76
76
74
74
73
71
71
70
70
69
69
67
67
66
65
65
65
63
62
62
61
60
60
60
59
59
58
57
56
56
55
55
54
53
52
51
50
50
48
48
43
40
38
38
38
37
35
35
35
35
34
33
33
32
32
31
31
31
31
30
